tps_eleves/tps_eleves/linear_prog/question1/question1.lp-pulp.mps
*SENSE:Minimize
NAME          MODEL
ROWS
 N  OBJ
 E  C0000000
 E  C0000001
 E  C0000002
 E  C0000003
COLUMNS
    X0000000  C0000000   1.000000000000e+00
    X0000000  OBJ        2.000000000000e+01
    X0000001  C0000000   1.000000000000e+00
    X0000001  OBJ        4.400000000000e+01
    X0000002  C0000000   1.000000000000e+00
    X0000002  OBJ        1.000000000000e+02
    X0000003  C0000001   1.000000000000e+00
    X0000003  OBJ        2.000000000000e+01
    X0000004  C0000001   1.000000000000e+00
    X0000004  OBJ        4.400000000000e+01
    X0000005  C0000001   1.000000000000e+00
    X0000005  OBJ        1.000000000000e+02
    X0000006  C0000002   1.000000000000e+00
    X0000006  OBJ        2.000000000000e+01
    X0000007  C0000002   1.000000000000e+00
    X0000007  OBJ        4.400000000000e+01
    X0000008  C0000002   1.000000000000e+00
    X0000008  OBJ        1.000000000000e+02
    X0000009  C0000003   1.000000000000e+00
    X0000009  OBJ        2.000000000000e+01
    X0000010  C0000003   1.000000000000e+00
    X0000010  OBJ        4.400000000000e+01
    X0000011  C0000003   1.000000000000e+00
    X0000011  OBJ        1.000000000000e+02
RHS
    RHS       C0000000   1.000000000000e+03
    RHS       C0000001   1.600000000000e+03
    RHS       C0000002   8.000000000000e+02
    RHS       C0000003   9.000000000000e+02
BOUNDS
 UP BND       X0000000   1.000000000000e+03
 UP BND       X0000001   5.500000000000e+02
 UP BND       X0000002   2.000000000000e+02
 UP BND       X0000003   1.000000000000e+03
 UP BND       X0000004   5.500000000000e+02
 UP BND       X0000005   2.000000000000e+02
 UP BND       X0000006   1.000000000000e+03
 UP BND       X0000007   5.500000000000e+02
 UP BND       X0000008   2.000000000000e+02
 UP BND       X0000009   1.000000000000e+03
 UP BND       X0000010   5.500000000000e+02
 UP BND       X0000011   2.000000000000e+02
ENDATA
