tps_eleves/tps_eleves/linear_prog/question1/question1.lp-pulp.sol
Optimal - objective value 103200.00000000
      0 C0000000            1000                      20
      1 C0000001            1600                     100
      2 C0000002             800                      20
      3 C0000003             900                      20
      0 X0000000            1000                       0
      1 X0000001               0                      24
      2 X0000002               0                      80
      3 X0000003            1000                     -80
      4 X0000004             550                     -56
      5 X0000005              50                       0
      6 X0000006             800                       0
      7 X0000007               0                      24
      8 X0000008               0                      80
      9 X0000009             900                       0
     10 X0000010               0                      24
     11 X0000011               0                      80
